NAME : ../File/prFile/tspFile/tsp_file12.tsp.482.tour
COMMENT : Length = 482
COMMENT : Found by LKH-3 [Keld Helsgaun] Wed Jun 14 17:47:17 2023
TYPE : TOUR
DIMENSION : 30
TOUR_SECTION
1
9
15
26
2
28
8
4
21
20
6
30
19
18
29
12
13
5
17
24
23
16
3
7
14
11
27
10
22
25
-1
EOF
